3 
4  52 
5  17 33 53 
6  08 20 28 35 43 50 58 
7  05 13 20 28 35 43 50 58 
8  05 13 20 28 35 43 53 
9  02 10 17 25 32 40 47 55 
10  02 10 17 25 32 40 47 55 
11  02 10 17 25 32 40 47 55 
12  02 10 17 25 32 40 48 56 
13  04 11 19 26 34 41 49 56 
14  04 11 19 28 36 43 51 58 
15  06 13 21 28 36 43 51 58 
16  06 13 21 28 36 43 51 58 
17  06 13 21 28 36 43 51 58 
18  06 13 21 28 36 43 51 58 
19  06 13 21 29 36 43 51 58 
20  06 13 21 28 36 43 51 58 
21  13 28 43 58 
22  14 29 44 59 
23  14 
0 
